H O                                     
   1.00000000000000     
    15.0000000000000000    0.0000000000000000    0.0000000000000000
     0.0000000000000000   15.0000000000000000    0.0000000000000000
     0.0000000000000000    0.0000000000000000   15.0000000000000000
   H    O 
     2     1
Selective dynamics
Direct
  0.6353166174033191  0.4975277749200018  0.4907863542865272   T   T   T
  0.5516382122650754  0.4975277749200018  0.4316132379117761   T   T   T
  0.5705748190086055  0.4975277749200018  0.4935875082286856   T   T   T
 
  0.00000000E+00  0.00000000E+00  0.00000000E+00
  0.00000000E+00  0.00000000E+00  0.00000000E+00
  0.00000000E+00  0.00000000E+00  0.00000000E+00
