H O                                     
   1.00000000000000     
    15.0000000000000000    0.0000000000000000    0.0000000000000000
     0.0000000000000000   15.0000000000000000    0.0000000000000000
     0.0000000000000000    0.0000000000000000   15.0000000000000000
   H    O 
     2     1
Selective dynamics
      0.04068      0.00078      4.54751        -0.029544     -0.047908     -0.031605 F F F 
     10.96734      0.01467      1.15966        -0.065744     -0.048723      0.020139 F F F 
      6.23675      1.49292      4.55135        -0.059930      0.038236      0.004802 F F F 
      4.75390      1.52495      1.15228         0.132682     -0.007992     -0.085208 T T T 
      3.24476      0.06110      3.90587         0.041882     -0.007968      0.016712 F F F 
      7.71527     -0.00367      1.79025         0.013744     -0.029014      0.003342 F F F 
      9.43712      1.53936      3.88710        -0.024617     -0.014886      0.017212 F F F 
      1.61132      1.50804      1.80653        -0.072489      0.030269     -0.031091 F F F 
      0.00308      3.07281      4.60471         0.089142      0.016208     -0.098890 F F F 
     10.96336      3.07433      1.15653        -0.017240      0.006707     -0.013152 F F F 
      6.27725      4.68616      4.56487        -0.066882     -0.039625      0.018359 F F F 
      4.75604      4.62522      1.15245         0.129004      0.001143     -0.042193 T T T 
      7.70175      3.07422      1.78883        -0.044745     -0.001968     -0.032477 F F F 
      9.44524      4.61113      3.88124         0.009296      0.015317      0.020978 F F F 
      1.61951      4.63847      1.81371        -0.079225     -0.037918     -0.028456 F F F 
      0.04396      6.15037      4.54673        -0.006946      0.038570     -0.005686 F F F 
     10.97220      6.13253      1.15944        -0.048301      0.052493      0.022210 F F F 
      6.20077      7.69444      4.54735         0.108792      0.010766      0.015558 T T T 
      4.74372      7.68711      1.17293         0.096213     -0.002871     -0.010057 F F F 
      3.25052      6.09084      3.90962         0.054526      0.020954      0.021814 F F F 
      7.71811      6.15526      1.78704         0.013367      0.026835      0.007168 F F F 
      9.43335      7.68716      3.89403         0.018383      0.002695      0.003237 F F F 
      1.54513      7.68597      1.81832        -0.006679     -0.002093     -0.019880 F F F 
     -1.37209     -0.00184     10.23391        -0.040797     -0.047582     -0.074804 F F F 
      9.54541      0.00051      6.85084        -0.036328      0.003574      0.002660 F F F 
      4.80667      1.53774     10.24236         0.030994     -0.024750      0.021482 F F F 
      3.35002      1.54554      6.78170         0.070996     -0.014825      0.070719 F F F 
      1.87419     -0.00023      9.59125         0.025390      0.028855      0.004928 F F F 
      6.29842     -0.00270      7.50581         0.077161      0.066070     -0.000476 F F F 
      8.04096      1.53833      9.59420        -0.024568     -0.011886     -0.036205 F F F 
      0.15518      1.53023      7.51473        -0.030551     -0.014194      0.073056 F F F 
     -1.35824      3.07591     10.26593         0.014169     -0.000214     -0.100000 F F F 
      9.54718      3.07513      6.85710        -0.030903     -0.002141     -0.009434 F F F 
      4.80625      4.61162     10.24303         0.031968      0.025112      0.028097 F F F 
      3.35489      4.61048      6.78878         0.070238      0.024636      0.068783 F F F 
      1.87764      3.07548      9.57420         0.000562     -0.014997      0.027031 F F F 
      6.29732      3.07529      7.50656        -0.052826      0.003860     -0.006350 F F F 
      8.04035      4.61082      9.59419        -0.023265      0.015168     -0.027639 F F F 
      0.15544      4.61979      7.51513        -0.033130      0.016150      0.064706 F F F 
     -1.37159      6.15150     10.23505        -0.037605      0.046677     -0.050542 F F F 
      9.54408      6.14940      6.85104        -0.033973     -0.009382     -0.002822 F F F 
      4.80693      7.68722     10.24994         0.013414      0.003080      0.053840 F F F 
      3.37544      7.68855      6.82758        -0.000056      0.001186      0.038137 F F F 
      1.87400      6.14917      9.59229         0.017793     -0.016961      0.011087 F F F 
      6.30103      6.15966      7.51497         0.072683     -0.050697     -0.020396 F F F 
      8.03903      7.68785      9.60202        -0.053986      0.001004      0.005221 F F F 
      0.14589      7.68706      7.50491        -0.018546      0.001185     -0.009304 F F F 
      1.91079     -0.02583      0.61081        -0.001164      0.007178      0.038064 F F F 
      9.02053      0.00457      5.05878        -0.014580     -0.000341      0.016462 F F F 
      8.12046      1.53931      0.63313         0.015221     -0.005484     -0.050393 F F F 
      2.79457      1.51520      5.05357        -0.142953     -0.059583     -0.078105 F F F 
      5.80980     -0.01115      1.42695        -0.038952      0.005240     -0.033658 F F F 
      5.19411     -0.00076      4.24868        -0.030881      0.025667     -0.023212 F F F 
     -0.35283      1.54796      1.46945         0.060867      0.017715      0.010150 F F F 
     -0.99393      1.53745      4.25129         0.033175      0.032948      0.030422 F F F 
      9.61755      0.00607      2.50637         0.038844      0.016032     -0.035955 F F F 
      1.32442     -0.01108      3.17475         0.063806     -0.040904     -0.067534 F F F 
      3.43908      1.42183      2.44218        -0.026379     -0.060041      0.102585 T T T 
      7.54000      1.53611      3.18529         0.010211      0.049985     -0.023997 F F F 
      1.92225      3.07547      0.65768         0.031093     -0.000597      0.085479 F F F 
      9.02351      3.07700      5.06049         0.042681      0.005622     -0.008017 F F F 
      8.12062      4.60935      0.63315         0.017885      0.011197     -0.057111 F F F 
      2.80489      4.64829      5.06197        -0.163701      0.049376     -0.037439 F F F 
      5.78104      3.07430      1.45207         0.009116      0.002242      0.004911 F F F 
      5.29803      3.10451      4.27702         0.093712     -0.051727      0.058998 F F F 
     -0.34754      4.59840      1.47447         0.052165     -0.033462      0.013535 F F F 
     -0.98792      4.61223      4.24923         0.040183     -0.060141      0.028382 F F F 
      9.61052      3.07345      2.50272         0.093277      0.001569     -0.063160 F F F 
      1.39698      3.05189      3.28125        -0.280366      0.025002     -0.084030 F F F 
      3.44516      4.72034      2.45113        -0.004574      0.049689      0.075185 F F F 
      7.55294      4.61968      3.17936        -0.004874     -0.043510     -0.009685 F F F 
      1.91306      6.17183      0.61266        -0.000825     -0.012843      0.034140 F F F 
      9.01869      6.14310      5.05821        -0.012119      0.001557      0.005833 F F F 
      8.13761      7.68872      0.63133         0.062450     -0.002547     -0.040833 F F F 
      2.85894      7.69139      5.04406         0.016647     -0.015279     -0.062790 F F F 
      5.81126      6.16111      1.42607        -0.038316      0.001045     -0.032416 F F F 
      5.20585      6.15922      4.25068        -0.056250     -0.011391     -0.024322 F F F 
     11.95514      7.68719      1.44716         0.033841     -0.003427      0.006594 F F F 
     -1.00006      7.68639      4.26300         0.105659      0.006728      0.029485 T T T 
      9.62193      6.14667      2.50507         0.036121     -0.014190     -0.038050 F F F 
      1.32784      6.15511      3.17555         0.073481      0.040153     -0.077356 F F F 
      3.42652      7.68524      2.51888         0.021694     -0.002637      0.023757 F F F 
      7.54273      7.68860      3.18859        -0.010253      0.000953      0.028886 F F F 
      0.52412     -0.00501      6.34437        -0.031154     -0.005426      0.002832 F F F 
      7.64787      0.00593     10.76799         0.026120      0.023375      0.051019 F F F 
      6.73339      1.54006      6.34036         0.001016      0.011647      0.012109 F F F 
      1.47783      1.54103     10.74385         0.021654     -0.007715      0.078006 F F F 
      4.39262      0.00706      7.15653        -0.036068     -0.004513      0.022677 F F F 
      3.79881     -0.00197      9.94933        -0.032643      0.027429     -0.015750 F F F 
     10.56756      1.53667      7.14726        -0.023578      0.010032     -0.000336 F F F 
     -2.38254      1.54287      9.94032         0.040531      0.033089      0.013139 F F F 
      8.21366      0.00099      8.20887        -0.007044      0.015066     -0.025013 F F F 
     -0.03281     -0.00291      8.88941        -0.037272     -0.016308      0.014905 F F F 
      2.05245      1.53760      8.20156         0.011149     -0.019006      0.011562 F F F 
      6.14332      1.53688      8.89320         0.003371      0.002253      0.018201 F F F 
      0.53367      3.07515      6.37468        -0.015379      0.000121     -0.082972 F F F 
      7.64552      3.07501     10.76452         0.029577     -0.002497      0.105608 T T T 
      6.75068      4.61768      6.35639         0.002999      0.004431     -0.008426 F F F 
      1.47760      4.60812     10.74572         0.016610      0.017007      0.068887 F F F 
      4.38748      3.07554      7.16745        -0.037485      0.006128     -0.030278 F F F 
      3.79687      3.07481      9.95753        -0.023041     -0.003623     -0.000366 F F F 
     10.56750      4.61342      7.14704        -0.027786     -0.003194     -0.000059 F F F 
     -2.38323      4.60795      9.93976         0.039304     -0.037985      0.013440 F F F 
      8.21097      3.07341      8.20680         0.024483      0.001492      0.009498 F F F 
     -0.03845      3.07469      8.90038        -0.037501      0.006201      0.040033 F F F 
      2.05255      4.61237      8.20413         0.010765      0.025416      0.014297 F F F 
      6.14326      4.61230      8.89537         0.004785      0.006389      0.023020 F F F 
      0.52345      6.15495      6.34523        -0.032820      0.008344     -0.010631 F F F 
      7.64814      6.14334     10.76933         0.027793     -0.021367      0.048313 F F F 
      6.73334      7.68970      6.34125         0.004228      0.003325     -0.020914 F F F 
      1.47956      7.68748     10.75977         0.013934     -0.005831      0.045251 F F F 
      4.39694      6.15007      7.16395        -0.040696     -0.002241      0.019923 F F F 
      3.79865      6.15159      9.95010        -0.030702     -0.026798     -0.010426 F F F 
     10.56025      7.68684      7.14913        -0.025401      0.003972      0.007186 F F F 
     -2.39271      7.68686      9.92641         0.069862      0.005065     -0.023351 F F F 
      8.21599      6.15212      8.21291        -0.007831     -0.009094     -0.025457 F F F 
     -0.03348      6.15275      8.88971        -0.024644      0.013607      0.021659 F F F 
      2.04931      7.68701      8.20546         0.015813     -0.000540     -0.041330 F F F 
      6.14160      7.68955      8.89895         0.041006      0.000767      0.026445 F F F 
      2.21340      2.98292      3.86453        -0.091587      0.006188     -0.059614 F F F 
      4.37109      3.15548      3.96342        -0.161833     -0.045156      0.037497 F F F 
